Minimize
  obj: x0 + x1 + x2 + x3 + x4 + x5 + x6 + x7 + x8 + x9

Subject To
  c0: x3 + x8 + x9 = 23
  c1: x0 + x3 + x7 + x8 + x9 = 41
  c2: x0 + x5 + x7 + x9 = 26
  c3: x0 + x2 + x3 + x5 + x7 + x9 = 52
  c4: x3 + x5 = 17
  c5: x0 + x3 + x4 + x5 + x7 + x8 + x9 = 60
  c6: x3 + x4 + x5 + x6 + x7 + x8 = 40
  c7: x0 + x1 + x2 + x3 + x5 + x6 + x7 + x8 + x9 = 61
  c8: x0 + x1 + x3 + x5 + x6 + x7 + x9 = 42

Bounds
  x0 >= 0
  x1 >= 0
  x2 >= 0
  x3 >= 0
  x4 >= 0
  x5 >= 0
  x6 >= 0
  x7 >= 0
  x8 >= 0
  x9 >= 0

Generals
  x0 x1 x2 x3 x4 x5 x6 x7 x8 x9

End
